<number of tasks>
58

<cycle time>
71

<task times>
1 10
2 53
3 41
4 36
5 35
6 17
7 34
8 23
9 14
10 52
11 33
12 34
13 12
14 52
15 12
16 33
17 44
18 7
19 15
20 13
21 29
22 37
23 43
24 23
25 24
26 9
27 16
28 12
29 26
30 22
31 51
32 47
33 34
34 23
35 12
36 52
37 12
38 33
39 44
40 7
41 15
42 13
43 29
44 37
45 43
46 23
47 24
48 9
49 16
50 12
51 26
52 12
53 52
54 12
55 33
56 44
57 7
58 15

<precedence relations>
1,9
2,25
3,21
3,22
4,10
5,36
6,23
6,24
7,43
8,44
9,11
11,13
11,14
11,15
12,17
13,17
14,17
15,17
16,18
17,20
18,19
19,23
20,21
20,25
21,26
21,44
22,27
23,31
24,31
25,38
26,29
27,30
28,32
28,33
29,31
30,34
31,36
32,45
33,35
34,36
35,43
36,37
36,38
37,39
37,40
37,41
38,52
39,43
40,43
41,42
42,43
43,45
44,45
45,46
45,48
45,49
46,47
46,50
47,51
48,55
49,58
50,58
51,52
52,53
53,54
54,55
54,56
55,57
56,57
57,58

<setup times forward>
1,2:10
1,3:9
1,4:3
1,5:3
1,6:10
1,7:12
1,8:14
1,9:4
1,10:4
1,12:4
1,16:2
1,18:6
1,19:4
1,22:5
1,23:12
1,24:4
1,27:12
1,30:2
1,33:5
1,34:2
1,35:3
2,1:10
2,3:19
2,4:7
2,5:7
2,7:22
2,8:24
2,9:14
2,10:14
2,11:8
2,12:14
2,13:11
2,14:16
2,15:16
2,16:8
2,17:11
2,18:16
2,19:14
2,20:11
2,21:19
2,22:5
2,23:22
2,24:14
2,25:8
2,26:22
2,27:22
2,28:10
2,29:12
2,30:12
2,31:7
2,32:10
2,33:5
2,34:12
2,35:7
2,36:3
2,37:3
2,39:24
2,40:1
2,41:1
2,42:1
2,43:1
2,44:22
2,45:13
2,46:8
2,47:8
2,48:19
2,49:3
2,50:19
2,51:3
3,1:9
3,2:19
3,4:12
3,5:12
3,6:19
3,7:3
3,8:5
3,9:5
3,10:5
3,11:11
3,12:5
3,13:8
3,14:3
3,15:3
3,16:11
3,17:8
3,18:3
3,19:5
3,20:8
3,22:14
3,23:3
3,24:5
3,25:11
3,28:9
3,32:9
3,33:14
3,35:12
4,1:3
4,2:7
4,3:12
4,6:7
4,7:15
4,8:17
4,9:7
4,10:7
4,11:1
4,12:7
4,13:4
4,14:9
4,15:9
4,16:1
4,17:4
4,18:9
4,19:7
4,20:4
4,21:12
4,22:2
4,23:15
4,24:7
4,25:1
4,26:15
4,27:15
4,28:3
4,29:5
4,30:5
4,32:3
4,33:2
4,34:5
4,36:4
4,37:4
4,38:4
4,39:17
4,40:6
4,41:6
4,42:6
4,43:6
4,44:15
4,45:6
4,46:1
4,47:1
4,48:12
4,49:4
4,50:12
4,51:4
4,52:4
4,53:4
4,54:12
4,55:12
4,56:3
4,57:3
4,58:3
5,1:3
5,2:7
5,3:12
5,6:7
5,7:15
5,8:17
5,9:7
5,10:7
5,11:1
5,12:7
5,13:4
5,14:9
5,15:9
5,16:1
5,17:4
5,18:9
5,19:7
5,20:4
5,21:12
5,22:2
5,23:15
5,24:7
5,25:1
5,26:15
5,27:15
5,28:3
5,29:5
5,30:5
5,32:3
5,33:2
5,34:5
5,36:4
5,44:15
6,1:10
6,3:19
6,4:7
6,5:7
6,7:22
6,8:24
6,9:14
6,10:14
6,11:8
6,12:14
6,13:11
6,14:16
6,15:16
6,16:8
6,17:11
6,18:16
6,19:14
6,20:11
6,21:19
6,22:5
6,23:22
6,24:14
6,25:8
6,26:22
6,27:22
6,28:10
6,29:12
6,30:12
6,32:10
6,33:5
6,34:12
6,35:7
6,44:22
7,1:12
7,2:22
7,3:3
7,4:15
7,5:15
7,6:22
7,8:2
7,9:8
7,10:8
7,11:14
7,12:8
7,13:11
7,14:6
7,15:6
7,16:14
7,17:11
7,18:6
7,19:8
7,20:11
7,21:3
7,22:17
7,24:8
7,25:14
7,28:12
7,29:10
7,30:10
7,31:15
7,32:12
7,33:17
7,34:10
7,35:15
7,36:19
7,37:19
7,38:19
7,39:2
7,40:21
7,41:21
7,42:21
7,43:21
8,1:14
8,2:24
8,3:5
8,4:17
8,5:17
8,6:24
8,7:2
8,9:10
8,10:10
8,11:16
8,12:10
8,13:13
8,14:8
8,15:8
8,16:16
8,17:13
8,18:8
8,19:10
8,20:13
8,21:5
8,22:19
8,23:2
8,24:10
8,25:16
8,26:2
8,27:2
8,28:14
8,29:12
8,30:12
8,31:17
8,32:14
8,33:19
8,34:12
8,35:17
8,36:21
8,37:21
8,38:21
8,40:23
8,41:23
8,42:23
8,43:23
8,44:2
9,2:14
9,3:5
9,4:7
9,5:7
9,6:14
9,7:8
9,8:10
9,11:6
9,16:6
9,18:2
9,22:9
9,23:8
9,27:8
9,28:4
9,30:2
9,32:4
9,33:9
9,34:2
9,35:7
10,1:4
10,2:14
10,3:5
10,5:7
10,6:14
10,7:8
10,8:10
10,11:6
10,13:3
10,14:2
10,15:2
10,16:6
10,17:3
10,18:2
10,20:3
10,21:5
10,22:9
10,23:8
10,25:6
10,26:8
10,27:8
10,28:4
10,29:2
10,30:2
10,31:7
10,32:4
10,33:9
10,34:2
10,35:7
10,36:11
10,37:11
10,38:11
10,39:10
10,40:13
10,41:13
10,42:13
10,43:13
10,44:8
10,45:1
10,46:6
10,47:6
10,48:5
10,49:11
10,50:5
10,51:11
10,52:11
10,53:11
10,54:5
10,55:5
10,56:10
10,57:10
10,58:10
11,2:8
11,3:11
11,4:1
11,5:1
11,6:8
11,7:14
11,8:16
11,10:6
11,12:6
11,13:3
11,14:8
11,15:8
11,18:8
11,19:6
11,22:3
11,23:14
11,24:6
11,27:14
11,28:2
11,30:4
11,32:2
11,33:3
11,34:4
11,35:1
12,1:4
12,2:14
12,3:5
12,4:7
12,5:7
12,6:14
12,7:8
12,8:10
12,11:6
12,13:3
12,14:2
12,15:2
12,16:6
12,17:3
12,18:2
12,22:9
12,23:8
12,27:8
12,28:4
12,30:2
12,32:4
12,33:9
12,34:2
12,35:7
13,2:11
13,3:8
13,4:4
13,5:4
13,6:11
13,7:11
13,8:13
13,10:3
13,12:3
13,14:5
13,15:5
13,16:3
13,18:5
13,19:3
13,22:6
13,23:11
13,24:3
13,27:11
13,28:1
13,30:1
13,32:1
13,33:6
13,34:1
13,35:4
14,2:16
14,3:3
14,4:9
14,5:9
14,6:16
14,7:6
14,8:8
14,10:2
14,12:2
14,13:5
14,16:8
14,17:5
14,19:2
14,22:11
14,23:6
14,24:2
14,27:6
14,28:6
14,30:4
14,32:6
14,33:11
14,34:4
14,35:9
15,2:16
15,3:3
15,4:9
15,5:9
15,6:16
15,7:6
15,8:8
15,10:2
15,12:2
15,13:5
15,16:8
15,17:5
15,19:2
15,22:11
15,23:6
15,24:2
15,27:6
15,28:6
15,30:4
15,32:6
15,33:11
15,34:4
15,35:9
16,1:2
16,2:8
16,3:11
16,4:1
16,5:1
16,6:8
16,7:14
16,8:16
16,9:6
16,10:6
16,12:6
16,13:3
16,14:8
16,15:8
16,17:3
16,18:8
16,20:3
16,21:11
16,22:3
16,24:6
16,26:14
16,27:14
16,28:2
16,29:4
16,30:4
16,32:2
16,33:3
16,34:4
16,35:1
16,44:14
17,2:11
17,3:8
17,4:4
17,5:4
17,6:11
17,7:11
17,8:13
17,10:3
17,16:3
17,18:5
17,19:3
17,22:6
17,23:11
17,24:3
17,27:11
17,28:1
17,30:1
17,32:1
17,33:6
17,34:1
17,35:4
18,1:6
18,2:16
18,3:3
18,4:9
18,5:9
18,6:16
18,7:6
18,8:8
18,9:2
18,10:2
18,11:8
18,12:2
18,13:5
18,17:5
18,19:2
18,20:5
18,21:3
18,22:11
18,24:2
18,25:8
18,26:6
18,27:6
18,28:6
18,29:4
18,30:4
18,32:6
18,33:11
18,34:4
18,35:9
18,44:6
19,1:4
19,2:14
19,3:5
19,4:7
19,5:7
19,6:14
19,7:8
19,8:10
19,11:6
19,13:3
19,14:2
19,15:2
19,17:3
19,20:3
19,21:5
19,22:9
19,23:8
19,25:6
19,26:8
19,27:8
19,28:4
19,29:2
19,30:2
19,32:4
19,33:9
19,34:2
19,35:7
19,44:8
20,2:11
20,3:8
20,4:4
20,5:4
20,6:11
20,7:11
20,8:13
20,10:3
20,16:3
20,18:5
20,19:3
20,21:8
20,22:6
20,23:11
20,24:3
20,25:3
20,27:11
20,28:1
20,30:1
20,32:1
20,33:6
20,34:1
20,35:4
21,2:19
21,4:12
21,5:12
21,6:19
21,7:3
21,8:5
21,10:5
21,16:11
21,18:3
21,19:5
21,22:14
21,23:3
21,24:5
21,25:11
21,26:3
21,27:3
21,28:9
21,30:7
21,32:9
21,33:14
21,34:7
21,35:12
21,44:3
22,1:5
22,2:5
22,4:2
22,5:2
22,6:5
22,7:17
22,8:19
22,9:9
22,10:9
22,11:3
22,12:9
22,13:6
22,14:11
22,15:11
22,16:3
22,17:6
22,18:11
22,19:9
22,20:6
22,21:14
22,23:17
22,24:9
22,25:3
22,26:17
22,27:17
22,28:5
22,29:7
22,31:2
22,32:5
22,35:2
22,44:17
23,1:12
23,2:22
23,3:3
23,4:15
23,5:15
23,8:2
23,9:8
23,10:8
23,11:14
23,12:8
23,13:11
23,14:6
23,15:6
23,17:11
23,20:11
23,21:3
23,22:17
23,24:8
23,25:14
23,28:12
23,29:10
23,30:10
23,31:15
23,32:12
23,33:17
23,34:10
23,35:15
24,1:4
24,2:14
24,3:5
24,4:7
24,5:7
24,7:8
24,8:10
24,11:6
24,13:3
24,14:2
24,15:2
24,16:6
24,17:3
24,18:2
24,20:3
24,21:5
24,22:9
24,23:8
24,25:6
24,26:8
24,27:8
24,28:4
24,29:2
24,30:2
24,31:7
24,32:4
24,33:9
24,34:2
24,35:7
24,44:8
25,3:11
25,4:1
25,5:1
25,6:8
25,7:14
25,8:16
25,10:6
25,18:8
25,19:6
25,21:11
25,22:3
25,23:14
25,24:6
25,26:14
25,27:14
25,28:2
25,29:4
25,30:4
25,31:1
25,32:2
25,33:3
25,34:4
25,35:1
25,36:5
25,37:5
25,38:5
25,39:16
25,40:7
25,41:7
25,42:7
25,43:7
25,44:14
25,45:5
25,48:11
25,49:5
25,50:11
25,51:5
26,2:22
26,4:15
26,5:15
26,6:22
26,8:2
26,10:8
26,16:14
26,18:6
26,19:8
26,22:17
26,24:8
26,25:14
26,28:12
26,29:10
26,30:10
26,32:12
26,33:17
26,34:10
26,35:15
27,1:12
27,2:22
27,4:15
27,5:15
27,6:22
27,8:2
27,9:8
27,10:8
27,11:14
27,12:8
27,13:11
27,14:6
27,15:6
27,16:14
27,17:11
27,18:6
27,19:8
27,20:11
27,21:3
27,24:8
27,25:14
27,28:12
27,29:10
27,30:10
27,31:15
27,32:12
27,33:17
27,35:15
28,2:10
28,3:9
28,4:3
28,5:3
28,6:10
28,7:12
28,8:14
28,9:4
28,10:4
28,11:2
28,12:4
28,13:1
28,14:6
28,15:6
28,16:2
28,17:1
28,18:6
28,19:4
28,20:1
28,21:9
28,22:5
28,23:12
28,24:4
28,25:2
28,26:12
28,27:12
28,29:2
28,30:2
28,31:3
28,33:5
28,34:2
28,36:7
28,37:7
28,38:7
28,39:14
28,40:9
28,41:9
28,42:9
28,44:12
29,2:12
29,4:5
29,5:5
29,6:12
29,7:10
29,8:12
29,10:2
29,16:4
29,18:4
29,19:2
29,22:7
29,23:10
29,24:2
29,25:4
29,27:10
29,28:2
29,31:5
29,32:2
29,33:7
29,35:5
29,44:10
30,1:2
30,2:12
30,4:5
30,5:5
30,6:12
30,7:10
30,8:12
30,9:2
30,10:2
30,11:4
30,12:2
30,13:1
30,14:4
30,15:4
30,16:4
30,17:1
30,18:4
30,19:2
30,20:1
30,21:7
30,23:10
30,24:2
30,25:4
30,26:10
30,28:2
30,31:5
30,32:2
30,33:7
30,35:5
30,44:10
31,2:7
31,7:15
31,8:17
31,10:7
31,22:2
31,25:1
31,27:15
31,28:3
31,30:5
31,32:3
31,33:2
31,34:5
31,36:4
31,44:15
32,2:10
32,3:9
32,4:3
32,5:3
32,6:10
32,7:12
32,8:14
32,9:4
32,10:4
32,11:2
32,12:4
32,13:1
32,14:6
32,15:6
32,16:2
32,17:1
32,18:6
32,19:4
32,20:1
32,21:9
32,22:5
32,23:12
32,24:4
32,25:2
32,26:12
32,27:12
32,29:2
32,30:2
32,31:3
32,33:5
32,34:2
32,35:3
32,36:7
32,37:7
32,38:7
32,39:14
32,40:9
32,41:9
32,42:9
32,43:9
32,44:12
32,45:3
33,1:5
33,2:5
33,3:14
33,4:2
33,5:2
33,6:5
33,7:17
33,8:19
33,9:9
33,10:9
33,11:3
33,12:9
33,13:6
33,14:11
33,15:11
33,16:3
33,17:6
33,18:11
33,19:9
33,20:6
33,21:14
33,23:17
33,24:9
33,25:3
33,26:17
33,27:17
33,29:7
33,30:7
33,31:2
33,32:5
33,34:7
33,35:2
33,36:2
33,37:2
33,38:2
33,39:19
33,40:4
33,41:4
33,42:4
33,44:17
34,1:2
34,2:12
34,4:5
34,5:5
34,6:12
34,7:10
34,8:12
34,9:2
34,10:2
34,11:4
34,12:2
34,13:1
34,14:4
34,15:4
34,16:4
34,17:1
34,18:4
34,19:2
34,20:1
34,21:7
34,23:10
34,24:2
34,25:4
34,26:10
34,28:2
34,31:5
34,32:2
34,33:7
34,35:5
34,36:9
34,44:10
35,1:3
35,2:7
35,3:12
35,6:7
35,7:15
35,8:17
35,9:7
35,10:7
35,11:1
35,12:7
35,13:4
35,14:9
35,15:9
35,16:1
35,17:4
35,18:9
35,19:7
35,20:4
35,21:12
35,22:2
35,23:15
35,24:7
35,25:1
35,26:15
35,27:15
35,29:5
35,30:5
35,32:3
35,34:5
35,36:4
35,37:4
35,38:4
35,39:17
35,40:6
35,41:6
35,42:6
35,43:6
35,44:15
36,2:3
36,4:4
36,7:19
36,8:21
36,10:11
36,25:5
36,28:7
36,32:7
36,33:2
36,35:4
36,44:19
37,2:3
37,4:4
37,7:19
37,8:21
37,10:11
37,25:5
37,28:7
37,32:7
37,33:2
37,35:4
37,39:21
37,40:2
37,41:2
37,44:19
38,4:4
38,7:19
38,8:21
38,10:11
38,28:7
38,32:7
38,33:2
38,35:4
38,39:21
38,40:2
38,41:2
38,42:2
38,43:2
38,44:19
38,45:10
38,46:5
38,47:5
38,48:16
38,50:16
39,2:24
39,4:17
39,7:2
39,10:10
39,25:16
39,28:14
39,32:14
39,33:19
39,35:17
39,38:21
39,40:23
39,41:23
39,42:23
39,43:23
39,44:2
40,2:1
40,4:6
40,7:21
40,8:23
40,10:13
40,25:7
40,28:9
40,32:9
40,33:4
40,35:6
40,38:2
40,39:23
40,44:21
41,2:1
41,4:6
41,7:21
41,8:23
41,10:13
41,25:7
41,28:9
41,32:9
41,33:4
41,35:6
41,38:2
41,39:23
41,44:21
42,2:1
42,4:6
42,7:21
42,8:23
42,10:13
42,25:7
42,28:9
42,32:9
42,33:4
42,35:6
42,38:2
42,39:23
42,44:21
43,2:1
43,4:6
43,8:23
43,10:13
43,25:7
43,32:9
43,38:2
43,44:21
43,45:12
44,2:22
44,4:15
44,5:15
44,6:22
44,10:8
44,16:14
44,18:6
44,19:8
44,22:17
44,24:8
44,25:14
44,28:12
44,29:10
44,30:10
44,31:15
44,32:12
44,33:17
44,34:10
44,35:15
44,36:19
44,37:19
44,38:19
44,39:2
44,40:21
44,41:21
44,42:21
44,43:21
44,45:9
45,2:13
45,4:6
45,10:1
45,25:5
45,38:10
45,46:5
45,48:6
45,49:10
46,2:8
46,4:1
46,10:6
46,38:5
46,48:11
46,49:5
46,50:11
47,2:8
47,4:1
47,10:6
47,38:5
47,48:11
47,49:5
47,50:11
47,51:5
48,2:19
48,4:12
48,10:5
48,25:11
48,38:16
48,46:11
48,47:11
48,49:16
48,51:16
48,52:16
48,53:16
48,56:15
49,2:3
49,4:4
49,10:11
49,25:5
49,46:5
49,47:5
49,48:16
49,50:16
49,54:16
49,55:16
49,56:1
49,57:1
49,58:1
50,2:19
50,4:12
50,10:5
50,25:11
50,38:16
50,47:11
50,49:16
50,51:16
50,52:16
50,53:16
50,56:15
50,57:15
50,58:15
51,2:3
51,4:4
51,10:11
51,25:5
51,48:16
51,50:16
52,4:4
52,10:11
52,48:16
52,50:16
53,4:4
53,10:11
53,48:16
53,50:16
53,54:16
54,4:12
54,10:5
54,49:16
54,56:15
55,4:12
55,10:5
55,49:16
55,56:15
55,57:15
56,4:3
56,10:10
56,48:15
56,49:1
56,50:15
56,55:15
57,4:3
57,10:10
57,49:1
57,50:15
58,4:3
58,10:10

<setup times backward>
1,3:9
1,7:12
1,8:14
1,10:4
1,12:4
1,18:6
1,19:4
1,23:12
1,24:4
1,27:12
1,30:2
1,34:2
2,1:10
2,3:19
2,4:7
2,5:7
2,7:22
2,8:24
2,9:14
2,10:14
2,11:8
2,12:14
2,13:11
2,14:16
2,15:16
2,16:8
2,17:11
2,18:16
2,19:14
2,20:11
2,21:19
2,22:5
2,23:22
2,24:14
2,26:22
2,27:22
2,28:10
2,29:12
2,30:12
2,31:7
2,32:10
2,33:5
2,34:12
2,35:7
2,36:3
2,37:3
2,39:24
2,40:1
2,41:1
2,42:1
2,43:1
2,44:22
2,45:13
2,46:8
2,47:8
2,48:19
2,49:3
2,50:19
2,51:3
3,7:3
3,8:5
3,23:3
4,1:3
4,3:12
4,7:15
4,8:17
4,9:7
4,11:1
4,12:7
4,13:4
4,14:9
4,15:9
4,16:1
4,17:4
4,18:9
4,19:7
4,20:4
4,21:12
4,23:15
4,24:7
4,25:1
4,26:15
4,27:15
4,28:3
4,29:5
4,30:5
4,32:3
4,34:5
4,39:17
4,44:15
4,45:6
4,46:1
4,47:1
4,48:12
4,50:12
4,54:12
4,55:12
5,1:3
5,3:12
5,7:15
5,8:17
5,9:7
5,10:7
5,11:1
5,12:7
5,13:4
5,14:9
5,15:9
5,16:1
5,17:4
5,18:9
5,19:7
5,20:4
5,21:12
5,23:15
5,24:7
5,25:1
5,26:15
5,27:15
5,28:3
5,29:5
5,30:5
5,32:3
5,34:5
5,44:15
6,1:10
6,3:19
6,4:7
6,5:7
6,7:22
6,8:24
6,9:14
6,10:14
6,11:8
6,12:14
6,13:11
6,14:16
6,15:16
6,16:8
6,17:11
6,18:16
6,19:14
6,20:11
6,21:19
6,22:5
6,25:8
6,26:22
6,27:22
6,28:10
6,29:12
6,30:12
6,32:10
6,33:5
6,34:12
6,35:7
6,44:22
7,8:2
7,39:2
9,3:5
9,7:8
9,8:10
9,18:2
9,23:8
9,27:8
10,3:5
10,7:8
10,8:10
10,14:2
10,15:2
10,18:2
10,21:5
10,23:8
10,26:8
10,27:8
10,39:10
10,44:8
10,48:5
10,50:5
10,54:5
10,55:5
11,1:2
11,3:11
11,7:14
11,8:16
11,9:6
11,10:6
11,12:6
11,18:8
11,19:6
11,23:14
11,24:6
11,27:14
11,28:2
11,30:4
11,32:2
11,34:4
12,3:5
12,7:8
12,8:10
12,14:2
12,15:2
12,18:2
12,23:8
12,27:8
13,3:8
13,7:11
13,8:13
13,9:3
13,10:3
13,12:3
13,14:5
13,15:5
13,18:5
13,19:3
13,23:11
13,24:3
13,27:11
13,30:1
13,34:1
14,3:3
14,7:6
14,8:8
14,23:6
14,27:6
15,3:3
15,7:6
15,8:8
15,23:6
15,27:6
16,1:2
16,3:11
16,7:14
16,8:16
16,9:6
16,10:6
16,12:6
16,13:3
16,14:8
16,15:8
16,17:3
16,20:3
16,21:11
16,24:6
16,26:14
16,27:14
16,28:2
16,29:4
16,30:4
16,32:2
16,34:4
16,44:14
17,3:8
17,7:11
17,8:13
17,9:3
17,10:3
17,12:3
17,14:5
17,15:5
17,18:5
17,19:3
17,23:11
17,24:3
17,27:11
17,30:1
17,34:1
18,3:3
18,7:6
18,8:8
18,21:3
18,26:6
18,27:6
18,44:6
19,3:5
19,7:8
19,8:10
19,14:2
19,15:2
19,18:2
19,21:5
19,26:8
19,27:8
19,44:8
20,3:8
20,7:11
20,8:13
20,9:3
20,10:3
20,12:3
20,14:5
20,15:5
20,18:5
20,19:3
20,23:11
20,24:3
20,27:11
20,30:1
20,34:1
21,7:3
21,8:5
21,23:3
21,27:3
22,1:5
22,3:14
22,4:2
22,5:2
22,7:17
22,8:19
22,9:9
22,10:9
22,11:3
22,12:9
22,13:6
22,14:11
22,15:11
22,16:3
22,17:6
22,18:11
22,19:9
22,20:6
22,21:14
22,23:17
22,24:9
22,25:3
22,26:17
22,28:5
22,29:7
22,31:2
22,32:5
22,35:2
22,44:17
23,8:2
24,3:5
24,7:8
24,8:10
24,14:2
24,15:2
24,18:2
24,21:5
24,23:8
24,26:8
24,27:8
24,44:8
25,1:2
25,3:11
25,7:14
25,8:16
25,9:6
25,10:6
25,12:6
25,13:3
25,14:8
25,15:8
25,17:3
25,18:8
25,19:6
25,20:3
25,21:11
25,23:14
25,24:6
25,26:14
25,27:14
25,28:2
25,29:4
25,30:4
25,32:2
25,34:4
25,39:16
25,44:14
25,45:5
25,48:11
25,50:11
26,8:2
27,8:2
28,3:9
28,7:12
28,8:14
28,9:4
28,10:4
28,12:4
28,13:1
28,14:6
28,15:6
28,17:1
28,18:6
28,19:4
28,20:1
28,21:9
28,23:12
28,24:4
28,26:12
28,27:12
28,29:2
28,30:2
28,34:2
28,39:14
28,44:12
29,3:7
29,7:10
29,8:12
29,9:2
29,10:2
29,12:2
29,14:4
29,15:4
29,18:4
29,19:2
29,21:7
29,23:10
29,24:2
29,26:10
29,27:10
29,44:10
30,3:7
30,7:10
30,8:12
30,9:2
30,10:2
30,12:2
30,14:4
30,15:4
30,18:4
30,19:2
30,21:7
30,23:10
30,24:2
30,26:10
30,27:10
30,44:10
31,1:3
31,3:12
31,7:15
31,8:17
31,9:7
31,10:7
31,11:1
31,12:7
31,13:4
31,14:9
31,15:9
31,16:1
31,17:4
31,18:9
31,19:7
31,20:4
31,21:12
31,23:15
31,24:7
31,25:1
31,26:15
31,27:15
31,28:3
31,29:5
31,30:5
31,32:3
31,34:5
31,44:15
32,3:9
32,7:12
32,8:14
32,9:4
32,10:4
32,12:4
32,13:1
32,14:6
32,15:6
32,17:1
32,18:6
32,19:4
32,20:1
32,21:9
32,23:12
32,24:4
32,26:12
32,27:12
32,29:2
32,30:2
32,34:2
32,39:14
32,44:12
33,1:5
33,3:14
33,4:2
33,5:2
33,7:17
33,8:19
33,9:9
33,10:9
33,11:3
33,12:9
33,13:6
33,14:11
33,15:11
33,16:3
33,17:6
33,18:11
33,19:9
33,20:6
33,21:14
33,23:17
33,24:9
33,25:3
33,26:17
33,27:17
33,28:5
33,29:7
33,30:7
33,31:2
33,32:5
33,34:7
33,39:19
33,44:17
34,3:7
34,7:10
34,8:12
34,9:2
34,10:2
34,12:2
34,14:4
34,15:4
34,18:4
34,19:2
34,21:7
34,23:10
34,24:2
34,26:10
34,27:10
34,44:10
35,1:3
35,3:12
35,7:15
35,8:17
35,9:7
35,10:7
35,11:1
35,12:7
35,13:4
35,14:9
35,15:9
35,16:1
35,17:4
35,18:9
35,19:7
35,20:4
35,21:12
35,23:15
35,24:7
35,25:1
35,26:15
35,27:15
35,28:3
35,29:5
35,30:5
35,32:3
35,34:5
35,39:17
35,44:15
36,1:7
36,3:16
36,4:4
36,5:4
36,7:19
36,8:21
36,9:11
36,10:11
36,11:5
36,12:11
36,13:8
36,14:13
36,15:13
36,16:5
36,17:8
36,18:13
36,19:11
36,20:8
36,21:16
36,22:2
36,23:19
36,24:11
36,25:5
36,26:19
36,27:19
36,28:7
36,29:9
36,30:9
36,31:4
36,32:7
36,33:2
36,34:9
36,35:4
36,44:19
37,1:7
37,3:16
37,4:4
37,5:4
37,7:19
37,8:21
37,9:11
37,10:11
37,11:5
37,12:11
37,13:8
37,14:13
37,15:13
37,16:5
37,17:8
37,18:13
37,19:11
37,20:8
37,21:16
37,22:2
37,23:19
37,24:11
37,25:5
37,26:19
37,27:19
37,28:7
37,29:9
37,30:9
37,31:4
37,32:7
37,33:2
37,34:9
37,35:4
37,44:19
38,1:7
38,3:16
38,4:4
38,5:4
38,7:19
38,8:21
38,9:11
38,10:11
38,11:5
38,12:11
38,13:8
38,14:13
38,15:13
38,16:5
38,17:8
38,18:13
38,19:11
38,20:8
38,21:16
38,22:2
38,23:19
38,24:11
38,25:5
38,26:19
38,27:19
38,28:7
38,29:9
38,30:9
38,31:4
38,32:7
38,33:2
38,34:9
38,35:4
38,39:21
38,44:19
38,45:10
38,46:5
38,47:5
38,48:16
38,50:16
40,1:9
40,3:18
40,4:6
40,5:6
40,7:21
40,8:23
40,9:13
40,10:13
40,11:7
40,12:13
40,13:10
40,14:15
40,15:15
40,16:7
40,17:10
40,18:15
40,19:13
40,20:10
40,21:18
40,22:4
40,23:21
40,24:13
40,25:7
40,26:21
40,27:21
40,28:9
40,29:11
40,30:11
40,31:6
40,32:9
40,33:4
40,34:11
40,35:6
40,36:2
40,37:2
40,38:2
40,39:23
40,44:21
41,1:9
41,3:18
41,4:6
41,5:6
41,7:21
41,8:23
41,9:13
41,10:13
41,11:7
41,12:13
41,13:10
41,14:15
41,15:15
41,16:7
41,17:10
41,18:15
41,19:13
41,20:10
41,21:18
41,22:4
41,23:21
41,24:13
41,25:7
41,26:21
41,27:21
41,28:9
41,29:11
41,30:11
41,31:6
41,32:9
41,33:4
41,34:11
41,35:6
41,36:2
41,37:2
41,38:2
41,39:23
41,44:21
42,1:9
42,3:18
42,4:6
42,5:6
42,7:21
42,8:23
42,9:13
42,10:13
42,11:7
42,12:13
42,13:10
42,14:15
42,15:15
42,16:7
42,17:10
42,18:15
42,19:13
42,20:10
42,21:18
42,22:4
42,23:21
42,24:13
42,25:7
42,26:21
42,27:21
42,28:9
42,29:11
42,30:11
42,31:6
42,32:9
42,33:4
42,34:11
42,35:6
42,36:2
42,37:2
42,38:2
42,39:23
42,44:21
43,1:9
43,3:18
43,4:6
43,5:6
43,7:21
43,8:23
43,9:13
43,10:13
43,11:7
43,12:13
43,13:10
43,14:15
43,15:15
43,16:7
43,17:10
43,18:15
43,19:13
43,20:10
43,21:18
43,22:4
43,23:21
43,24:13
43,25:7
43,26:21
43,27:21
43,28:9
43,29:11
43,30:11
43,31:6
43,32:9
43,33:4
43,34:11
43,35:6
43,36:2
43,37:2
43,38:2
43,39:23
43,44:21
44,8:2
44,39:2
45,3:6
45,7:9
45,8:11
45,9:1
45,10:1
45,12:1
45,14:3
45,15:3
45,18:3
45,19:1
45,21:6
45,23:9
45,24:1
45,26:9
45,27:9
45,39:11
45,44:9
46,1:2
46,3:11
46,7:14
46,8:16
46,9:6
46,10:6
46,12:6
46,13:3
46,14:8
46,15:8
46,17:3
46,18:8
46,19:6
46,20:3
46,21:11
46,23:14
46,24:6
46,26:14
46,27:14
46,28:2
46,29:4
46,30:4
46,32:2
46,34:4
46,39:16
46,44:14
46,45:5
46,48:11
47,1:2
47,3:11
47,7:14
47,8:16
47,9:6
47,10:6
47,12:6
47,13:3
47,14:8
47,15:8
47,17:3
47,18:8
47,19:6
47,20:3
47,21:11
47,23:14
47,24:6
47,26:14
47,27:14
47,28:2
47,29:4
47,30:4
47,32:2
47,34:4
47,39:16
47,44:14
47,45:5
47,48:11
47,50:11
48,7:3
48,8:5
48,23:3
48,26:3
48,27:3
48,39:5
48,44:3
49,1:7
49,3:16
49,4:4
49,5:4
49,7:19
49,8:21
49,9:11
49,10:11
49,11:5
49,12:11
49,13:8
49,14:13
49,15:13
49,16:5
49,17:8
49,18:13
49,19:11
49,20:8
49,21:16
49,22:2
49,23:19
49,24:11
49,25:5
49,26:19
49,27:19
49,28:7
49,29:9
49,30:9
49,31:4
49,32:7
49,33:2
49,34:9
49,35:4
49,39:21
49,44:19
49,45:10
49,46:5
49,47:5
49,48:16
49,50:16
49,54:16
49,55:16
49,56:1
49,57:1
50,7:3
50,8:5
50,23:3
50,26:3
50,27:3
50,39:5
50,44:3
51,1:7
51,3:16
51,4:4
51,5:4
51,7:19
51,8:21
51,9:11
51,10:11
51,11:5
51,12:11
51,13:8
51,14:13
51,15:13
51,16:5
51,17:8
51,18:13
51,19:11
51,20:8
51,21:16
51,22:2
51,23:19
51,24:11
51,25:5
51,26:19
51,27:19
51,28:7
51,29:9
51,30:9
51,31:4
51,32:7
51,33:2
51,34:9
51,35:4
51,39:21
51,44:19
51,45:10
51,46:5
51,47:5
51,48:16
51,50:16
52,1:7
52,3:16
52,4:4
52,5:4
52,7:19
52,8:21
52,9:11
52,10:11
52,11:5
52,12:11
52,13:8
52,14:13
52,15:13
52,16:5
52,17:8
52,18:13
52,19:11
52,20:8
52,21:16
52,22:2
52,23:19
52,24:11
52,25:5
52,26:19
52,27:19
52,28:7
52,29:9
52,30:9
52,31:4
52,32:7
52,33:2
52,34:9
52,35:4
52,39:21
52,44:19
52,45:10
52,46:5
52,47:5
52,48:16
52,50:16
53,1:7
53,3:16
53,4:4
53,5:4
53,7:19
53,8:21
53,9:11
53,10:11
53,11:5
53,12:11
53,13:8
53,14:13
53,15:13
53,16:5
53,17:8
53,18:13
53,19:11
53,20:8
53,21:16
53,22:2
53,23:19
53,24:11
53,25:5
53,26:19
53,27:19
53,28:7
53,29:9
53,30:9
53,31:4
53,32:7
53,33:2
53,34:9
53,35:4
53,39:21
53,44:19
53,45:10
53,46:5
53,47:5
53,48:16
53,50:16
54,7:3
54,8:5
54,23:3
54,26:3
54,27:3
54,39:5
54,44:3
55,7:3
55,8:5
55,23:3
55,26:3
55,27:3
55,39:5
55,44:3
56,1:6
56,3:15
56,4:3
56,5:3
56,7:18
56,8:20
56,9:10
56,10:10
56,11:4
56,12:10
56,13:7
56,14:12
56,15:12
56,16:4
56,17:7
56,18:12
56,19:10
56,20:7
56,21:15
56,22:1
56,23:18
56,24:10
56,25:4
56,26:18
56,27:18
56,28:6
56,29:8
56,30:8
56,31:3
56,32:6
56,33:1
56,34:8
56,35:3
56,39:20
56,44:18
56,45:9
56,46:4
56,47:4
56,48:15
56,50:15
56,54:15
56,55:15
57,1:6
57,3:15
57,4:3
57,5:3
57,7:18
57,8:20
57,9:10
57,10:10
57,11:4
57,12:10
57,13:7
57,14:12
57,15:12
57,16:4
57,17:7
57,18:12
57,19:10
57,20:7
57,21:15
57,22:1
57,23:18
57,24:10
57,25:4
57,26:18
57,27:18
57,28:6
57,29:8
57,30:8
57,31:3
57,32:6
57,33:1
57,34:8
57,35:3
57,39:20
57,44:18
57,45:9
57,46:4
57,47:4
57,48:15
57,50:15
57,54:15
57,55:15
58,1:6
58,3:15
58,4:3
58,5:3
58,7:18
58,8:20
58,9:10
58,10:10
58,11:4
58,12:10
58,13:7
58,14:12
58,15:12
58,16:4
58,17:7
58,18:12
58,19:10
58,20:7
58,21:15
58,22:1
58,23:18
58,24:10
58,25:4
58,26:18
58,27:18
58,28:6
58,29:8
58,30:8
58,31:3
58,32:6
58,33:1
58,34:8
58,35:3
58,39:20
58,44:18
58,45:9
58,46:4
58,47:4
58,48:15
58,50:15
58,54:15
58,55:15

<end>

<optimal SALBP-1 value>
23


<rand seed>
467321153

